68 68
67 23
33 27
52 10
45 12
19 16
65 17
66 1
57 23
7 1
9 3
36 14
32 27
4 26
12 11
49 32
62 20
51 8
24 34
58 30
2 25
40 26
18 21
47 9
23 5
41 29
56 11
34 16
55 34
31 4
25 28
3 18
44 4
59 25
27 7
53 22
21 12
22 19
61 3
38 31
37 33
46 20
15 6
39 24
60 31
28 28
43 14
63 15
13 10
8 17
42 30
54 6
20 15
10 21
14 13
68 5
48 2
30 13
16 2
64 33
1 29
11 24
6 7
26 8
17 9
5 32
50 18
35 19
29 22
